p cnf 120 862
1 2 3 0
4 5 6 0
7 8 9 0
10 11 12 0
13 14 15 0
16 17 18 0
19 20 21 0
22 23 24 0
25 26 27 0
28 29 30 0
31 32 33 0
34 35 36 0
37 38 39 0
40 41 42 0
43 44 45 0
46 47 48 0
49 50 51 0
52 53 54 0
55 56 57 0
58 59 60 0
61 62 63 0
64 65 66 0
67 68 69 0
70 71 72 0
73 74 75 0
76 77 78 0
79 80 81 0
82 83 84 0
85 86 87 0
88 89 90 0
91 92 93 0
94 95 96 0
97 98 99 0
100 101 102 0
103 104 105 0
106 107 108 0
109 110 111 0
112 113 114 0
115 116 117 0
118 119 120 0
-1 -2 0
-1 -3 0
-2 -3 0
-4 -5 0
-4 -6 0
-5 -6 0
-7 -8 0
-7 -9 0
-8 -9 0
-10 -11 0
-10 -12 0
-11 -12 0
-13 -14 0
-13 -15 0
-14 -15 0
-16 -17 0
-16 -18 0
-17 -18 0
-19 -20 0
-19 -21 0
-20 -21 0
-22 -23 0
-22 -24 0
-23 -24 0
-25 -26 0
-25 -27 0
-26 -27 0
-28 -29 0
-28 -30 0
-29 -30 0
-31 -32 0
-31 -33 0
-32 -33 0
-34 -35 0
-34 -36 0
-35 -36 0
-37 -38 0
-37 -39 0
-38 -39 0
-40 -41 0
-40 -42 0
-41 -42 0
-43 -44 0
-43 -45 0
-44 -45 0
-46 -47 0
-46 -48 0
-47 -48 0
-49 -50 0
-49 -51 0
-50 -51 0
-52 -53 0
-52 -54 0
-53 -54 0
-55 -56 0
-55 -57 0
-56 -57 0
-58 -59 0
-58 -60 0
-59 -60 0
-61 -62 0
-61 -63 0
-62 -63 0
-64 -65 0
-64 -66 0
-65 -66 0
-67 -68 0
-67 -69 0
-68 -69 0
-70 -71 0
-70 -72 0
-71 -72 0
-73 -74 0
-73 -75 0
-74 -75 0
-76 -77 0
-76 -78 0
-77 -78 0
-79 -80 0
-79 -81 0
-80 -81 0
-82 -83 0
-82 -84 0
-83 -84 0
-85 -86 0
-85 -87 0
-86 -87 0
-88 -89 0
-88 -90 0
-89 -90 0
-91 -92 0
-91 -93 0
-92 -93 0
-94 -95 0
-94 -96 0
-95 -96 0
-97 -98 0
-97 -99 0
-98 -99 0
-100 -101 0
-100 -102 0
-101 -102 0
-103 -104 0
-103 -105 0
-104 -105 0
-106 -107 0
-106 -108 0
-107 -108 0
-109 -110 0
-109 -111 0
-110 -111 0
-112 -113 0
-112 -114 0
-113 -114 0
-115 -116 0
-115 -117 0
-116 -117 0
-118 -119 0
-118 -120 0
-119 -120 0
-1 -16 0
-2 -17 0
-3 -18 0
-1 -25 0
-2 -26 0
-3 -27 0
-1 -31 0
-2 -32 0
-3 -33 0
-1 -34 0
-2 -35 0
-3 -36 0
-1 -37 0
-2 -38 0
-3 -39 0
-1 -49 0
-2 -50 0
-3 -51 0
-1 -58 0
-2 -59 0
-3 -60 0
-1 -91 0
-2 -92 0
-3 -93 0
-1 -94 0
-2 -95 0
-3 -96 0
-1 -100 0
-2 -101 0
-3 -102 0
-1 -109 0
-2 -110 0
-3 -111 0
-1 -115 0
-2 -116 0
-3 -117 0
-4 -10 0
-5 -11 0
-6 -12 0
-4 -31 0
-5 -32 0
-6 -33 0
-4 -49 0
-5 -50 0
-6 -51 0
-4 -55 0
-5 -56 0
-6 -57 0
-4 -70 0
-5 -71 0
-6 -72 0
-4 -79 0
-5 -80 0
-6 -81 0
-4 -85 0
-5 -86 0
-6 -87 0
-4 -91 0
-5 -92 0
-6 -93 0
-4 -109 0
-5 -110 0
-6 -111 0
-4 -115 0
-5 -116 0
-6 -117 0
-7 -10 0
-8 -11 0
-9 -12 0
-7 -37 0
-8 -38 0
-9 -39 0
-7 -43 0
-8 -44 0
-9 -45 0
-7 -52 0
-8 -53 0
-9 -54 0
-7 -61 0
-8 -62 0
-9 -63 0
-7 -64 0
-8 -65 0
-9 -66 0
-7 -79 0
-8 -80 0
-9 -81 0
-7 -103 0
-8 -104 0
-9 -105 0
-7 -106 0
-8 -107 0
-9 -108 0
-7 -115 0
-8 -116 0
-9 -117 0
-10 -22 0
-11 -23 0
-12 -24 0
-10 -25 0
-11 -26 0
-12 -27 0
-10 -49 0
-11 -50 0
-12 -51 0
-10 -55 0
-11 -56 0
-12 -57 0
-10 -79 0
-11 -80 0
-12 -81 0
-10 -85 0
-11 -86 0
-12 -87 0
-10 -106 0
-11 -107 0
-12 -108 0
-10 -109 0
-11 -110 0
-12 -111 0
-13 -28 0
-14 -29 0
-15 -30 0
-13 -46 0
-14 -47 0
-15 -48 0
-13 -49 0
-14 -50 0
-15 -51 0
-13 -52 0
-14 -53 0
-15 -54 0
-13 -64 0
-14 -65 0
-15 -66 0
-13 -70 0
-14 -71 0
-15 -72 0
-13 -82 0
-14 -83 0
-15 -84 0
-13 -115 0
-14 -116 0
-15 -117 0
-13 -118 0
-14 -119 0
-15 -120 0
-16 -28 0
-17 -29 0
-18 -30 0
-16 -37 0
-17 -38 0
-18 -39 0
-16 -40 0
-17 -41 0
-18 -42 0
-16 -46 0
-17 -47 0
-18 -48 0
-16 -52 0
-17 -53 0
-18 -54 0
-16 -73 0
-17 -74 0
-18 -75 0
-16 -76 0
-17 -77 0
-18 -78 0
-16 -79 0
-17 -80 0
-18 -81 0
-16 -82 0
-17 -83 0
-18 -84 0
-16 -85 0
-17 -86 0
-18 -87 0
-16 -103 0
-17 -104 0
-18 -105 0
-19 -28 0
-20 -29 0
-21 -30 0
-19 -34 0
-20 -35 0
-21 -36 0
-19 -37 0
-20 -38 0
-21 -39 0
-19 -40 0
-20 -41 0
-21 -42 0
-19 -49 0
-20 -50 0
-21 -51 0
-19 -52 0
-20 -53 0
-21 -54 0
-19 -64 0
-20 -65 0
-21 -66 0
-19 -67 0
-20 -68 0
-21 -69 0
-19 -73 0
-20 -74 0
-21 -75 0
-19 -100 0
-20 -101 0
-21 -102 0
-19 -109 0
-20 -110 0
-21 -111 0
-19 -112 0
-20 -113 0
-21 -114 0
-22 -25 0
-23 -26 0
-24 -27 0
-22 -34 0
-23 -35 0
-24 -36 0
-22 -40 0
-23 -41 0
-24 -42 0
-22 -61 0
-23 -62 0
-24 -63 0
-22 -85 0
-23 -86 0
-24 -87 0
-22 -112 0
-23 -113 0
-24 -114 0
-22 -115 0
-23 -116 0
-24 -117 0
-25 -37 0
-26 -38 0
-27 -39 0
-25 -43 0
-26 -44 0
-27 -45 0
-25 -46 0
-26 -47 0
-27 -48 0
-25 -67 0
-26 -68 0
-27 -69 0
-25 -73 0
-26 -74 0
-27 -75 0
-25 -79 0
-26 -80 0
-27 -81 0
-25 -85 0
-26 -86 0
-27 -87 0
-25 -91 0
-26 -92 0
-27 -93 0
-25 -94 0
-26 -95 0
-27 -96 0
-25 -109 0
-26 -110 0
-27 -111 0
-28 -31 0
-29 -32 0
-30 -33 0
-28 -34 0
-29 -35 0
-30 -36 0
-28 -40 0
-29 -41 0
-30 -42 0
-28 -43 0
-29 -44 0
-30 -45 0
-28 -52 0
-29 -53 0
-30 -54 0
-28 -55 0
-29 -56 0
-30 -57 0
-28 -61 0
-29 -62 0
-30 -63 0
-28 -64 0
-29 -65 0
-30 -66 0
-28 -79 0
-29 -80 0
-30 -81 0
-28 -82 0
-29 -83 0
-30 -84 0
-28 -85 0
-29 -86 0
-30 -87 0
-28 -88 0
-29 -89 0
-30 -90 0
-28 -97 0
-29 -98 0
-30 -99 0
-28 -109 0
-29 -110 0
-30 -111 0
-28 -112 0
-29 -113 0
-30 -114 0
-31 -34 0
-32 -35 0
-33 -36 0
-31 -40 0
-32 -41 0
-33 -42 0
-31 -55 0
-32 -56 0
-33 -57 0
-31 -58 0
-32 -59 0
-33 -60 0
-31 -85 0
-32 -86 0
-33 -87 0
-31 -94 0
-32 -95 0
-33 -96 0
-34 -40 0
-35 -41 0
-36 -42 0
-34 -52 0
-35 -53 0
-36 -54 0
-34 -85 0
-35 -86 0
-36 -87 0
-34 -88 0
-35 -89 0
-36 -90 0
-34 -91 0
-35 -92 0
-36 -93 0
-34 -97 0
-35 -98 0
-36 -99 0
-34 -100 0
-35 -101 0
-36 -102 0
-37 -40 0
-38 -41 0
-39 -42 0
-37 -43 0
-38 -44 0
-39 -45 0
-37 -46 0
-38 -47 0
-39 -48 0
-37 -52 0
-38 -53 0
-39 -54 0
-37 -67 0
-38 -68 0
-39 -69 0
-37 -70 0
-38 -71 0
-39 -72 0
-37 -73 0
-38 -74 0
-39 -75 0
-37 -88 0
-38 -89 0
-39 -90 0
-37 -91 0
-38 -92 0
-39 -93 0
-37 -115 0
-38 -116 0
-39 -117 0
-37 -118 0
-38 -119 0
-39 -120 0
-40 -49 0
-41 -50 0
-42 -51 0
-40 -52 0
-41 -53 0
-42 -54 0
-40 -67 0
-41 -68 0
-42 -69 0
-40 -73 0
-41 -74 0
-42 -75 0
-40 -76 0
-41 -77 0
-42 -78 0
-40 -79 0
-41 -80 0
-42 -81 0
-40 -94 0
-41 -95 0
-42 -96 0
-40 -97 0
-41 -98 0
-42 -99 0
-40 -103 0
-41 -104 0
-42 -105 0
-40 -106 0
-41 -107 0
-42 -108 0
-40 -109 0
-41 -110 0
-42 -111 0
-40 -115 0
-41 -116 0
-42 -117 0
-43 -58 0
-44 -59 0
-45 -60 0
-43 -73 0
-44 -74 0
-45 -75 0
-43 -82 0
-44 -83 0
-45 -84 0
-43 -91 0
-44 -92 0
-45 -93 0
-43 -97 0
-44 -98 0
-45 -99 0
-43 -106 0
-44 -107 0
-45 -108 0
-43 -109 0
-44 -110 0
-45 -111 0
-46 -64 0
-47 -65 0
-48 -66 0
-46 -70 0
-47 -71 0
-48 -72 0
-46 -79 0
-47 -80 0
-48 -81 0
-46 -91 0
-47 -92 0
-48 -93 0
-46 -97 0
-47 -98 0
-48 -99 0
-46 -100 0
-47 -101 0
-48 -102 0
-46 -109 0
-47 -110 0
-48 -111 0
-49 -55 0
-50 -56 0
-51 -57 0
-49 -58 0
-50 -59 0
-51 -60 0
-49 -64 0
-50 -65 0
-51 -66 0
-49 -79 0
-50 -80 0
-51 -81 0
-49 -88 0
-50 -89 0
-51 -90 0
-49 -94 0
-50 -95 0
-51 -96 0
-49 -103 0
-50 -104 0
-51 -105 0
-49 -112 0
-50 -113 0
-51 -114 0
-52 -55 0
-53 -56 0
-54 -57 0
-52 -70 0
-53 -71 0
-54 -72 0
-52 -82 0
-53 -83 0
-54 -84 0
-52 -88 0
-53 -89 0
-54 -90 0
-52 -100 0
-53 -101 0
-54 -102 0
-55 -61 0
-56 -62 0
-57 -63 0
-55 -70 0
-56 -71 0
-57 -72 0
-55 -73 0
-56 -74 0
-57 -75 0
-55 -97 0
-56 -98 0
-57 -99 0
-55 -100 0
-56 -101 0
-57 -102 0
-55 -103 0
-56 -104 0
-57 -105 0
-58 -64 0
-59 -65 0
-60 -66 0
-58 -67 0
-59 -68 0
-60 -69 0
-58 -70 0
-59 -71 0
-60 -72 0
-58 -85 0
-59 -86 0
-60 -87 0
-58 -91 0
-59 -92 0
-60 -93 0
-58 -94 0
-59 -95 0
-60 -96 0
-58 -106 0
-59 -107 0
-60 -108 0
-61 -82 0
-62 -83 0
-63 -84 0
-61 -97 0
-62 -98 0
-63 -99 0
-61 -109 0
-62 -110 0
-63 -111 0
-61 -115 0
-62 -116 0
-63 -117 0
-64 -88 0
-65 -89 0
-66 -90 0
-64 -97 0
-65 -98 0
-66 -99 0
-64 -109 0
-65 -110 0
-66 -111 0
-64 -115 0
-65 -116 0
-66 -117 0
-64 -118 0
-65 -119 0
-66 -120 0
-67 -85 0
-68 -86 0
-69 -87 0
-67 -88 0
-68 -89 0
-69 -90 0
-67 -103 0
-68 -104 0
-69 -105 0
-67 -106 0
-68 -107 0
-69 -108 0
-70 -82 0
-71 -83 0
-72 -84 0
-70 -88 0
-71 -89 0
-72 -90 0
-70 -91 0
-71 -92 0
-72 -93 0
-70 -100 0
-71 -101 0
-72 -102 0
-70 -103 0
-71 -104 0
-72 -105 0
-70 -106 0
-71 -107 0
-72 -108 0
-70 -115 0
-71 -116 0
-72 -117 0
-73 -76 0
-74 -77 0
-75 -78 0
-73 -79 0
-74 -80 0
-75 -81 0
-73 -88 0
-74 -89 0
-75 -90 0
-73 -100 0
-74 -101 0
-75 -102 0
-76 -79 0
-77 -80 0
-78 -81 0
-76 -106 0
-77 -107 0
-78 -108 0
-76 -115 0
-77 -116 0
-78 -117 0
-76 -118 0
-77 -119 0
-78 -120 0
-79 -88 0
-80 -89 0
-81 -90 0
-79 -100 0
-80 -101 0
-81 -102 0
-79 -106 0
-80 -107 0
-81 -108 0
-79 -118 0
-80 -119 0
-81 -120 0
-82 -94 0
-83 -95 0
-84 -96 0
-82 -97 0
-83 -98 0
-84 -99 0
-82 -115 0
-83 -116 0
-84 -117 0
-85 -88 0
-86 -89 0
-87 -90 0
-85 -91 0
-86 -92 0
-87 -93 0
-85 -112 0
-86 -113 0
-87 -114 0
-88 -91 0
-89 -92 0
-90 -93 0
-88 -109 0
-89 -110 0
-90 -111 0
-91 -97 0
-92 -98 0
-93 -99 0
-91 -103 0
-92 -104 0
-93 -105 0
-91 -115 0
-92 -116 0
-93 -117 0
-94 -103 0
-95 -104 0
-96 -105 0
-94 -115 0
-95 -116 0
-96 -117 0
-97 -109 0
-98 -110 0
-99 -111 0
-97 -115 0
-98 -116 0
-99 -117 0
-100 -103 0
-101 -104 0
-102 -105 0
-103 -106 0
-104 -107 0
-105 -108 0
-103 -112 0
-104 -113 0
-105 -114 0
-103 -115 0
-104 -116 0
-105 -117 0
-106 -118 0
-107 -119 0
-108 -120 0
-109 -115 0
-110 -116 0
-111 -117 0
-115 -118 0
-116 -119 0
-117 -120 0
